3463321
103,38,134,194,153,119,29,219,96,109,193,24,78,137,1,64,60,135,205,84,85,69,151,208,97,50,225,68,72,112,41,197,13,164,171,167,61,143,67,14,116,209,94,23,201,131,172,159,175,4,210,144,199,9,173,7,123,47,46,224,213,117,48,218,222,18,133,12,45,226,63,87,100,214,191,34,93,107,27,204,106,80,10,57,82,156,73,146,127,98,40,177,110,211,229,99,91,215,180,118,158,124,190,56,166,228,88,178,195,65,52,174,183,115,95,150,33,36,142,196,44,11,145,108,102,43,31,121,176,15,59,89,203,126,188,113,217,5,160,139,70,216,185,149,170,92,162,62,0,71,90,2,81,157,6,28,179,105,221,39,101,54,129,51,220,200,83,30,184,8,49,192,138,75,155,207,136,19,223,128,32,25,3,20,202,37,114,122,147,187,130,181,21,86,182,35,77,74,165,58,16,163,22,125,55,17,189,140,76,168,26,132,154,111,161,66,206,79,148,42,141,169,186,227,212,198,53,104,120,152,103
